DIMENSION :6
NODE_COORD_SECTION
1 73.04239836092961 -38.83971434835829
2 87.49733888235355 63.16361008291693
3 88.66156147966794 -38.47694734293952
4 -59.15035712964356 95.7473950238701
5 27.91932020602978 -28.161812561241973
6 90.2603142018049 -12.936413143457216
EOF
